\ENCODING=ISO-8859-1
\Problem name: IloCplex

Minimize
 obj1: 1000000 y0 + 1000000 y1 + 1000000 y2 + 1000000 y3 + 1000000 y4
Subject To
 c1: y0  = 1
 c2: y1  = 1
 c3: y2  = 1
 c4: y3  = 1
 c5: y4  = 1
End
